c This file was generated with the constraints_to_cnf module in this project.
c Starting from file 'constraints.txt'.
c There are 41 variables present in the constraints, and 45 total variables, given by the shape [1, 45].
c
p cnf 45 255
1 2 0
1 20 0
1 3 0
1 21 0
1 45 0
7 14 0
2 24 0
2 42 0
16 18 0
16 24 0
16 42 0
18 19 0
18 25 0
18 43 0
18 45 0
19 20 0
19 3 0
19 21 0
19 24 0
19 28 0
19 31 0
19 42 0
19 45 0
19 9 0
3 24 0
3 4 0
3 8 0
21 24 0
21 4 0
21 42 0
21 8 0
24 25 0
24 36 0
24 37 0
24 5 0
24 41 0
24 43 0
24 45 0
25 42 0
26 45 0
38 43 0
5 42 0
41 42 0
42 43 0
42 45 0
44 45 0
45 10 0
1 -11 0
1 -13 0
1 -17 0
1 -22 0
1 -23 0
1 -26 0
1 -30 0
1 -4 0
1 -32 0
1 -33 0
1 -35 0
1 -39 0
1 -40 0
1 -8 0
1 -10 0
2 -12 0
2 -5 0
2 -41 0
11 -17 0
13 -17 0
13 -33 0
13 -35 0
16 -12 0
16 -36 0
16 -37 0
16 -5 0
16 -41 0
16 -43 0
18 -17 0
18 -22 0
18 -23 0
18 -26 0
18 -28 0
18 -30 0
18 -31 0
18 -33 0
18 -35 0
18 -40 0
18 -42 0
18 -44 0
18 -7 0
19 -11 0
19 -12 0
19 -13 0
19 -16 0
19 -17 0
19 -22 0
19 -23 0
19 -25 0
19 -26 0
19 -30 0
19 -4 0
19 -32 0
19 -33 0
19 -35 0
19 -36 0
19 -37 0
19 -39 0
19 -40 0
19 -5 0
19 -41 0
19 -43 0
19 -44 0
19 -8 0
19 -10 0
20 -12 0
3 -2 0
3 -12 0
3 -16 0
3 -36 0
3 -37 0
3 -5 0
3 -41 0
3 -43 0
3 -7 0
21 -2 0
21 -12 0
21 -16 0
21 -3 0
21 -23 0
21 -35 0
21 -36 0
21 -37 0
21 -5 0
21 -41 0
21 -43 0
21 -7 0
22 -17 0
24 -1 0
24 -11 0
24 -13 0
24 -17 0
24 -18 0
24 -22 0
24 -23 0
24 -26 0
24 -28 0
24 -30 0
24 -4 0
24 -31 0
24 -33 0
24 -35 0
24 -39 0
24 -40 0
24 -42 0
24 -44 0
24 -7 0
24 -8 0
25 -12 0
25 -16 0
25 -36 0
25 -37 0
25 -5 0
25 -41 0
25 -43 0
26 -32 0
26 -33 0
26 -35 0
28 -17 0
28 -23 0
28 -31 0
28 -7 0
30 -17 0
30 -23 0
30 -33 0
30 -40 0
4 -17 0
4 -22 0
4 -33 0
31 -7 0
32 -33 0
32 -35 0
36 -12 0
36 -37 0
36 -5 0
36 -41 0
37 -12 0
37 -16 0
37 -5 0
37 -41 0
37 -43 0
39 -17 0
39 -23 0
39 -33 0
5 -12 0
5 -37 0
5 -41 0
41 -12 0
41 -16 0
41 -36 0
41 -37 0
41 -5 0
41 -43 0
42 -11 0
42 -13 0
42 -17 0
42 -18 0
42 -22 0
42 -23 0
42 -24 0
42 -26 0
42 -28 0
42 -30 0
42 -31 0
42 -33 0
42 -35 0
42 -40 0
42 -44 0
42 -7 0
42 -8 0
43 -12 0
43 -16 0
43 -36 0
43 -37 0
43 -5 0
43 -41 0
44 -33 0
44 -35 0
45 -11 0
45 -12 0
45 -16 0
45 -17 0
45 -22 0
45 -31 0
45 -37 0
45 -5 0
45 -41 0
45 -43 0
45 -7 0
8 -11 0
8 -13 0
8 -17 0
8 -22 0
8 -33 0
8 -35 0
9 -11 0
9 -17 0
9 -22 0
9 -23 0
9 -28 0
9 -31 0
9 -33 0
9 -7 0
10 -26 0
10 -32 0
10 -33 0
10 -35 0
-36 -38 0

